c File: data_files/evolved_graphs/g3704.col
c
c Auto generated graph
c
p edge 100 1482
e 1 4
e 1 7
e 1 8
e 1 9
e 1 12
e 1 13
e 1 14
e 1 15
e 1 18
e 1 29
e 1 30
e 1 32
e 1 36
e 1 37
e 1 40
e 1 43
e 1 45
e 1 48
e 1 49
e 1 52
e 1 53
e 1 54
e 1 55
e 1 56
e 1 61
e 1 62
e 1 63
e 1 64
e 1 66
e 1 67
e 1 68
e 1 69
e 1 73
e 1 74
e 1 75
e 1 77
e 1 86
e 1 91
e 1 93
e 1 94
e 2 4
e 2 5
e 2 7
e 2 10
e 2 15
e 2 17
e 2 18
e 2 21
e 2 22
e 2 24
e 2 26
e 2 28
e 2 41
e 2 42
e 2 43
e 2 44
e 2 45
e 2 49
e 2 53
e 2 56
e 2 62
e 2 80
e 2 81
e 2 85
e 3 4
e 3 6
e 3 8
e 3 9
e 3 10
e 3 12
e 3 16
e 3 22
e 3 30
e 3 31
e 3 32
e 3 39
e 3 40
e 3 41
e 3 44
e 3 45
e 3 47
e 3 60
e 3 62
e 3 63
e 3 64
e 3 65
e 3 66
e 3 70
e 3 74
e 3 76
e 3 79
e 3 97
e 4 5
e 4 6
e 4 8
e 4 9
e 4 10
e 4 13
e 4 16
e 4 21
e 4 23
e 4 24
e 4 27
e 4 29
e 4 31
e 4 37
e 4 38
e 4 40
e 4 41
e 4 44
e 4 50
e 4 54
e 4 56
e 4 57
e 4 58
e 4 59
e 4 62
e 4 63
e 4 65
e 4 66
e 4 73
e 4 74
e 4 77
e 4 78
e 4 89
e 4 90
e 4 95
e 4 96
e 5 8
e 5 9
e 5 13
e 5 14
e 5 20
e 5 21
e 5 23
e 5 26
e 5 27
e 5 30
e 5 37
e 5 40
e 5 46
e 5 47
e 5 49
e 5 50
e 5 52
e 5 53
e 5 61
e 5 62
e 5 64
e 5 75
e 5 76
e 5 90
e 5 96
e 6 13
e 6 14
e 6 16
e 6 18
e 6 19
e 6 20
e 6 23
e 6 24
e 6 25
e 6 26
e 6 28
e 6 29
e 6 36
e 6 38
e 6 42
e 6 44
e 6 45
e 6 47
e 6 51
e 6 54
e 6 55
e 6 56
e 6 58
e 6 59
e 6 62
e 6 63
e 6 64
e 6 68
e 6 69
e 6 74
e 6 76
e 6 77
e 6 83
e 6 84
e 6 87
e 6 99
e 7 8
e 7 13
e 7 14
e 7 15
e 7 21
e 7 23
e 7 25
e 7 27
e 7 34
e 7 40
e 7 41
e 7 43
e 7 45
e 7 46
e 7 48
e 7 57
e 7 60
e 7 61
e 7 62
e 7 64
e 7 70
e 7 73
e 7 75
e 7 90
e 7 97
e 7 98
e 8 10
e 8 11
e 8 13
e 8 15
e 8 16
e 8 17
e 8 21
e 8 24
e 8 29
e 8 30
e 8 32
e 8 34
e 8 35
e 8 39
e 8 40
e 8 42
e 8 43
e 8 46
e 8 48
e 8 49
e 8 51
e 8 52
e 8 54
e 8 58
e 8 60
e 8 62
e 8 64
e 8 65
e 8 66
e 8 67
e 8 68
e 8 71
e 8 72
e 8 74
e 8 75
e 8 77
e 8 78
e 8 88
e 9 11
e 9 13
e 9 15
e 9 17
e 9 23
e 9 24
e 9 25
e 9 26
e 9 28
e 9 33
e 9 35
e 9 37
e 9 38
e 9 41
e 9 42
e 9 45
e 9 49
e 9 50
e 9 51
e 9 52
e 9 53
e 9 54
e 9 57
e 9 61
e 9 63
e 9 65
e 9 68
e 9 69
e 9 71
e 9 72
e 9 74
e 9 79
e 9 88
e 9 90
e 10 11
e 10 13
e 10 15
e 10 17
e 10 19
e 10 20
e 10 25
e 10 27
e 10 29
e 10 31
e 10 32
e 10 33
e 10 37
e 10 41
e 10 42
e 10 43
e 10 47
e 10 49
e 10 52
e 10 55
e 10 57
e 10 58
e 10 64
e 10 65
e 10 66
e 10 67
e 10 69
e 10 71
e 10 73
e 10 75
e 11 16
e 11 20
e 11 23
e 11 26
e 11 27
e 11 29
e 11 32
e 11 34
e 11 35
e 11 36
e 11 41
e 11 47
e 11 48
e 11 49
e 11 51
e 11 53
e 11 54
e 11 56
e 11 59
e 11 60
e 11 63
e 11 64
e 11 65
e 11 66
e 11 68
e 11 69
e 11 70
e 11 88
e 11 90
e 11 95
e 12 13
e 12 19
e 12 20
e 12 22
e 12 23
e 12 24
e 12 27
e 12 29
e 12 30
e 12 34
e 12 38
e 12 41
e 12 42
e 12 45
e 12 46
e 12 47
e 12 53
e 12 54
e 12 58
e 12 61
e 12 62
e 12 65
e 12 67
e 12 69
e 12 70
e 12 74
e 12 75
e 12 76
e 12 79
e 12 84
e 12 88
e 13 15
e 13 16
e 13 19
e 13 22
e 13 25
e 13 27
e 13 28
e 13 32
e 13 37
e 13 38
e 13 40
e 13 42
e 13 44
e 13 49
e 13 50
e 13 57
e 13 60
e 13 61
e 13 63
e 13 64
e 13 65
e 13 69
e 13 73
e 13 79
e 13 93
e 13 98
e 14 17
e 14 19
e 14 22
e 14 25
e 14 28
e 14 29
e 14 31
e 14 34
e 14 37
e 14 39
e 14 41
e 14 42
e 14 44
e 14 45
e 14 47
e 14 50
e 14 51
e 14 52
e 14 53
e 14 54
e 14 57
e 14 59
e 14 60
e 14 65
e 14 66
e 14 69
e 14 73
e 14 77
e 14 85
e 14 90
e 14 97
e 15 16
e 15 22
e 15 23
e 15 26
e 15 27
e 15 29
e 15 31
e 15 39
e 15 43
e 15 45
e 15 48
e 15 49
e 15 50
e 15 58
e 15 63
e 15 64
e 15 66
e 15 67
e 15 73
e 15 76
e 15 77
e 16 19
e 16 24
e 16 25
e 16 27
e 16 32
e 16 37
e 16 42
e 16 43
e 16 44
e 16 51
e 16 52
e 16 55
e 16 56
e 16 61
e 16 64
e 16 69
e 16 72
e 16 73
e 16 74
e 16 75
e 16 93
e 16 96
e 17 18
e 17 21
e 17 23
e 17 25
e 17 26
e 17 28
e 17 29
e 17 31
e 17 33
e 17 35
e 17 37
e 17 38
e 17 40
e 17 42
e 17 46
e 17 48
e 17 51
e 17 52
e 17 56
e 17 57
e 17 60
e 17 62
e 17 65
e 17 66
e 17 67
e 17 71
e 17 73
e 17 76
e 17 82
e 17 94
e 17 96
e 18 19
e 18 23
e 18 25
e 18 34
e 18 35
e 18 37
e 18 38
e 18 48
e 18 53
e 18 55
e 18 57
e 18 62
e 18 63
e 18 64
e 18 73
e 18 74
e 18 75
e 18 84
e 18 88
e 18 90
e 19 25
e 19 28
e 19 32
e 19 33
e 19 43
e 19 48
e 19 49
e 19 56
e 19 57
e 19 59
e 19 61
e 19 67
e 19 79
e 19 85
e 19 87
e 19 96
e 20 21
e 20 22
e 20 34
e 20 36
e 20 38
e 20 41
e 20 42
e 20 43
e 20 44
e 20 48
e 20 51
e 20 58
e 20 59
e 20 61
e 20 64
e 20 66
e 20 67
e 20 71
e 20 75
e 20 77
e 20 83
e 20 91
e 20 92
e 21 22
e 21 23
e 21 24
e 21 27
e 21 29
e 21 34
e 21 36
e 21 37
e 21 39
e 21 40
e 21 46
e 21 47
e 21 50
e 21 51
e 21 53
e 21 56
e 21 61
e 21 62
e 21 63
e 21 65
e 21 66
e 21 70
e 21 74
e 21 86
e 21 87
e 21 91
e 21 99
e 22 23
e 22 24
e 22 25
e 22 27
e 22 28
e 22 38
e 22 41
e 22 42
e 22 46
e 22 49
e 22 52
e 22 56
e 22 60
e 22 61
e 22 63
e 22 64
e 22 65
e 22 66
e 22 68
e 22 70
e 22 71
e 22 76
e 22 83
e 22 86
e 23 24
e 23 29
e 23 31
e 23 36
e 23 40
e 23 44
e 23 48
e 23 49
e 23 50
e 23 52
e 23 54
e 23 62
e 23 64
e 23 65
e 23 76
e 23 80
e 23 91
e 23 94
e 23 96
e 24 28
e 24 29
e 24 31
e 24 33
e 24 34
e 24 39
e 24 44
e 24 47
e 24 49
e 24 51
e 24 53
e 24 54
e 24 55
e 24 57
e 24 60
e 24 61
e 24 62
e 24 63
e 24 64
e 24 71
e 24 74
e 24 75
e 24 78
e 24 90
e 24 96
e 25 29
e 25 34
e 25 42
e 25 46
e 25 47
e 25 48
e 25 49
e 25 50
e 25 55
e 25 58
e 25 60
e 25 61
e 25 66
e 25 67
e 25 68
e 25 69
e 25 73
e 25 77
e 25 82
e 25 87
e 25 97
e 25 99
e 26 30
e 26 33
e 26 34
e 26 35
e 26 36
e 26 37
e 26 39
e 26 40
e 26 41
e 26 44
e 26 45
e 26 46
e 26 49
e 26 52
e 26 53
e 26 54
e 26 56
e 26 60
e 26 61
e 26 63
e 26 68
e 26 69
e 26 73
e 26 83
e 26 93
e 27 28
e 27 30
e 27 31
e 27 32
e 27 33
e 27 34
e 27 35
e 27 38
e 27 40
e 27 42
e 27 43
e 27 45
e 27 49
e 27 52
e 27 53
e 27 54
e 27 55
e 27 58
e 27 59
e 27 60
e 27 71
e 27 73
e 27 74
e 27 75
e 27 77
e 27 86
e 27 90
e 28 29
e 28 30
e 28 38
e 28 39
e 28 41
e 28 48
e 28 51
e 28 52
e 28 53
e 28 58
e 28 64
e 28 74
e 28 79
e 28 80
e 28 87
e 28 96
e 29 30
e 29 35
e 29 37
e 29 39
e 29 40
e 29 41
e 29 48
e 29 49
e 29 53
e 29 55
e 29 56
e 29 58
e 29 59
e 29 60
e 29 61
e 29 63
e 29 65
e 29 66
e 29 69
e 29 77
e 29 83
e 29 86
e 29 89
e 29 95
e 30 32
e 30 34
e 30 36
e 30 42
e 30 45
e 30 46
e 30 49
e 30 52
e 30 57
e 30 60
e 30 62
e 30 64
e 30 65
e 30 77
e 30 81
e 30 90
e 30 95
e 30 96
e 30 97
e 30 99
e 31 32
e 31 34
e 31 38
e 31 40
e 31 42
e 31 45
e 31 47
e 31 51
e 31 53
e 31 55
e 31 62
e 31 65
e 31 67
e 31 68
e 31 77
e 31 86
e 31 95
e 31 100
e 32 34
e 32 37
e 32 38
e 32 39
e 32 40
e 32 41
e 32 43
e 32 48
e 32 50
e 32 51
e 32 52
e 32 55
e 32 57
e 32 59
e 32 60
e 32 62
e 32 65
e 32 69
e 32 71
e 32 72
e 32 78
e 32 79
e 32 81
e 32 83
e 32 85
e 32 86
e 32 87
e 32 90
e 32 94
e 32 95
e 33 41
e 33 42
e 33 46
e 33 49
e 33 51
e 33 55
e 33 62
e 33 66
e 33 71
e 33 76
e 33 77
e 33 89
e 33 90
e 34 35
e 34 37
e 34 42
e 34 43
e 34 48
e 34 50
e 34 52
e 34 53
e 34 57
e 34 64
e 34 66
e 34 68
e 34 69
e 34 71
e 34 73
e 34 75
e 34 81
e 34 83
e 34 89
e 34 91
e 34 92
e 34 99
e 35 38
e 35 41
e 35 44
e 35 45
e 35 46
e 35 50
e 35 51
e 35 55
e 35 56
e 35 57
e 35 63
e 35 66
e 35 68
e 35 69
e 35 77
e 35 82
e 35 93
e 36 39
e 36 43
e 36 45
e 36 46
e 36 48
e 36 49
e 36 52
e 36 54
e 36 55
e 36 56
e 36 57
e 36 58
e 36 61
e 36 67
e 36 72
e 36 85
e 36 99
e 37 38
e 37 40
e 37 42
e 37 43
e 37 50
e 37 55
e 37 57
e 37 59
e 37 60
e 37 63
e 37 64
e 37 66
e 37 67
e 37 69
e 37 72
e 37 73
e 37 75
e 38 45
e 38 46
e 38 47
e 38 49
e 38 50
e 38 53
e 38 56
e 38 59
e 38 63
e 38 66
e 38 67
e 38 75
e 38 76
e 38 77
e 38 78
e 38 79
e 38 83
e 38 86
e 38 88
e 38 89
e 38 90
e 38 93
e 38 96
e 38 97
e 39 44
e 39 45
e 39 51
e 39 54
e 39 55
e 39 56
e 39 59
e 39 61
e 39 62
e 39 65
e 39 66
e 39 67
e 39 70
e 39 71
e 39 72
e 39 73
e 39 75
e 39 78
e 39 80
e 39 93
e 39 95
e 40 41
e 40 42
e 40 46
e 40 48
e 40 49
e 40 53
e 40 54
e 40 55
e 40 59
e 40 61
e 40 62
e 40 63
e 40 66
e 40 77
e 40 82
e 41 42
e 41 43
e 41 48
e 41 50
e 41 56
e 41 57
e 41 60
e 41 63
e 41 69
e 41 70
e 41 72
e 41 73
e 41 74
e 41 75
e 41 82
e 41 93
e 41 96
e 41 97
e 42 43
e 42 44
e 42 45
e 42 48
e 42 53
e 42 54
e 42 59
e 42 64
e 42 66
e 42 68
e 42 71
e 42 73
e 42 76
e 42 82
e 42 92
e 42 95
e 43 46
e 43 54
e 43 56
e 43 58
e 43 68
e 43 70
e 43 71
e 43 76
e 43 99
e 44 47
e 44 48
e 44 53
e 44 56
e 44 59
e 44 60
e 44 65
e 44 66
e 44 70
e 44 77
e 44 84
e 44 85
e 44 88
e 44 90
e 44 97
e 44 99
e 45 47
e 45 48
e 45 50
e 45 53
e 45 56
e 45 57
e 45 63
e 45 64
e 45 66
e 45 69
e 45 71
e 45 75
e 45 77
e 45 79
e 45 82
e 45 85
e 45 92
e 45 94
e 45 97
e 46 49
e 46 50
e 46 51
e 46 59
e 46 60
e 46 63
e 46 64
e 46 65
e 46 68
e 46 69
e 46 70
e 46 72
e 46 73
e 46 74
e 46 76
e 46 78
e 47 49
e 47 51
e 47 53
e 47 54
e 47 56
e 47 57
e 47 58
e 47 62
e 47 64
e 47 65
e 47 67
e 47 71
e 47 75
e 47 78
e 47 97
e 48 56
e 48 63
e 48 64
e 48 66
e 48 68
e 48 69
e 48 70
e 48 77
e 48 79
e 48 81
e 48 88
e 49 54
e 49 60
e 49 62
e 49 64
e 49 66
e 49 67
e 49 70
e 49 73
e 49 75
e 49 76
e 49 77
e 49 85
e 49 88
e 49 91
e 50 54
e 50 56
e 50 57
e 50 58
e 50 59
e 50 61
e 50 62
e 50 64
e 50 65
e 50 68
e 50 70
e 50 72
e 50 73
e 50 74
e 50 75
e 50 84
e 50 89
e 50 94
e 51 54
e 51 55
e 51 57
e 51 58
e 51 59
e 51 68
e 51 74
e 51 77
e 51 83
e 51 84
e 51 85
e 51 90
e 51 97
e 52 55
e 52 56
e 52 58
e 52 60
e 52 62
e 52 65
e 52 66
e 52 68
e 52 71
e 52 72
e 52 73
e 52 74
e 52 75
e 52 79
e 52 91
e 52 95
e 52 97
e 52 99
e 53 55
e 53 56
e 53 59
e 53 62
e 53 63
e 53 66
e 53 67
e 53 68
e 53 69
e 53 70
e 53 71
e 53 74
e 53 75
e 53 76
e 53 80
e 53 81
e 53 82
e 53 89
e 53 92
e 53 98
e 54 57
e 54 63
e 54 66
e 54 67
e 54 68
e 54 73
e 54 74
e 54 77
e 54 78
e 54 84
e 54 87
e 54 90
e 54 92
e 54 100
e 55 56
e 55 59
e 55 60
e 55 63
e 55 67
e 55 70
e 55 71
e 55 74
e 55 75
e 55 76
e 55 77
e 55 82
e 55 87
e 55 89
e 55 91
e 56 57
e 56 60
e 56 62
e 56 63
e 56 65
e 56 67
e 56 68
e 56 69
e 56 73
e 56 74
e 56 75
e 56 77
e 56 84
e 57 59
e 57 64
e 57 65
e 57 67
e 57 69
e 57 71
e 57 74
e 57 75
e 57 77
e 57 96
e 58 63
e 58 64
e 58 65
e 58 66
e 58 67
e 58 68
e 58 72
e 58 74
e 58 75
e 58 76
e 58 83
e 58 91
e 58 95
e 59 61
e 59 62
e 59 63
e 59 66
e 59 69
e 59 71
e 59 75
e 59 82
e 59 90
e 60 63
e 60 64
e 60 65
e 60 69
e 60 72
e 60 74
e 60 83
e 60 87
e 60 90
e 61 64
e 61 67
e 61 68
e 61 70
e 61 73
e 61 75
e 61 76
e 61 77
e 61 97
e 61 98
e 62 64
e 62 65
e 62 66
e 62 67
e 62 68
e 62 71
e 62 74
e 62 76
e 62 78
e 62 80
e 63 64
e 63 66
e 63 71
e 63 74
e 63 78
e 63 80
e 63 87
e 63 90
e 63 92
e 63 98
e 64 67
e 64 70
e 64 72
e 64 73
e 64 74
e 64 80
e 64 81
e 65 67
e 65 70
e 65 72
e 65 97
e 65 98
e 66 67
e 66 68
e 66 73
e 66 74
e 66 75
e 66 76
e 66 77
e 66 88
e 66 90
e 66 96
e 66 97
e 67 68
e 67 70
e 67 75
e 67 76
e 67 77
e 67 78
e 67 99
e 67 100
e 68 69
e 68 74
e 68 98
e 68 99
e 69 71
e 69 74
e 69 75
e 69 76
e 69 77
e 70 76
e 70 80
e 70 92
e 71 74
e 71 85
e 71 96
e 72 73
e 72 74
e 72 76
e 72 85
e 72 87
e 72 88
e 72 89
e 73 74
e 73 75
e 73 81
e 73 83
e 73 89
e 74 75
e 74 77
e 74 80
e 74 90
e 74 96
e 75 76
e 75 78
e 75 80
e 75 95
e 75 99
e 76 80
e 76 81
e 76 85
e 76 96
e 77 88
e 77 97
e 78 81
e 78 91
e 78 93
e 78 94
e 79 83
e 79 85
e 79 89
e 79 90
e 79 91
e 79 92
e 79 93
e 79 95
e 79 96
e 79 98
e 79 99
e 80 84
e 80 86
e 80 87
e 80 88
e 80 93
e 80 94
e 80 95
e 80 96
e 80 97
e 80 98
e 80 99
e 81 87
e 81 93
e 81 98
e 81 99
e 82 84
e 82 89
e 82 91
e 82 92
e 82 94
e 82 96
e 82 97
e 82 98
e 83 90
e 83 91
e 83 92
e 83 93
e 83 96
e 84 86
e 84 88
e 84 93
e 84 94
e 84 98
e 84 99
e 85 86
e 85 87
e 85 88
e 85 89
e 85 97
e 85 100
e 86 88
e 86 89
e 86 90
e 86 96
e 86 98
e 86 100
e 87 89
e 87 90
e 87 91
e 87 92
e 87 93
e 87 95
e 87 97
e 87 98
e 87 99
e 87 100
e 88 90
e 88 91
e 88 92
e 88 97
e 89 90
e 89 91
e 89 96
e 90 91
e 90 92
e 90 96
e 90 98
e 90 99
e 90 100
e 91 92
e 91 93
e 91 98
e 91 100
e 92 94
e 92 95
e 92 98
e 92 99
e 93 95
e 93 99
e 94 97
e 94 100
e 95 96
e 95 97
e 96 98
e 96 100
e 97 100
